16 16
0 3 1 5 2 6 3 4 1 0 2 8 3 9 4 7 5 6 6 2 7 1 8 4 9 5 1 0 3 2 4 8 6 9 5 7
1 4 2 6 3 7 4 5 2 1 3 9 4 0 5 8 6 7 7 3 8 2 9 5 0 6 2 1 4 3 5 9 7 0 8 6
2 5 3 7 4 8 5 6 3 2 4 0 5 1 6 9 7 8 8 4 9 3 0 6 1 7 3 2 5 4 6 0 8 1 9 7
3 6 4 8 5 9 6 7 4 3 5 1 6 2 7 0 8 9 9 5 0 4 1 7 2 8 4 3 6 5 7 1 9 2 0 8
4 7 5 9 6 0 7 8 5 4 6 2 7 3 8 1 9 0 10 6 1 5 2 8 3 9 5 4 7 6 8 2 0 3 10 1
5 8 6 0 7 1 8 9 6 5 7 3 8 4 9 2 0 1 11 7 2 6 3 9 4 0 6 5 8 7 9 3 1 4 11 2
6 9 7 1 8 2 9 0 7 6 8 4 9 5 0 3 1 2 12 8 3 7 4 0 5 1 7 6 9 8 0 4 2 5 12 3
7 0 8 2 9 3 0 1 8 7 9 5 0 6 1 4 2 3 13 9 4 8 5 1 6 2 8 7 0 9 1 5 3 6 13 4
8 1 9 3 0 4 1 2 9 8 0 6 1 7 2 5 3 4 14 0 5 9 6 2 7 3 9 8 1 0 2 6 4 7 14 5
9 2 0 4 1 5 2 3 0 9 1 7 2 8 3 6 4 5 15 1 6 0 7 3 8 4 0 9 2 1 3 7 5 8 15 6
10 3 1 5 2 6 3 4 1 10 2 8 3 9 4 7 5 6 16 2 7 1 8 4 9 5 1 0 3 2 4 8 6 9 5 7
11 4 2 6 3 7 4 5 2 11 3 9 4 0 5 8 6 7 17 3 8 2 9 5 0 6 2 1 4 3 5 9 7 0 8 6
12 5 3 7 4 8 5 6 3 12 4 0 5 1 6 9 7 8 18 4 9 3 0 6 1 7 3 2 5 4 6 0 8 1 9 7
13 6 4 8 5 9 6 7 4 13 5 1 6 2 7 0 8 9 19 5 0 4 1 7 2 8 4 3 6 5 7 1 9 2 0 8
14 7 5 9 6 0 7 8 5 14 6 2 7 3 8 1 9 0 20 6 1 5 2 8 3 9 5 4 7 6 8 2 0 3 10 1
15 8 6 0 7 1 8 9 6 15 7 3 8 4 9 2 0 1 21 7 2 6 3 9 4 0 6 5 8 7 9 3 1 4 11 2